400
[80,83,84,85,86,88,89,90,91,92,99,100,101,103,105,107,109,111,112,116,117,119,120,122,123,124,126,127,128,129,131,132,133,134,135,137,139,144,145,146,147,148,149,150,151,154,155,156,157,158,159,161,162,164,165,166,168,174,175,176,177,178,180,182,183,185,186,187,191,192,194,196,198,199,201,202,203,204,205,207,208,209,210,212,215,217,218,221,222,224,225,227,228,229,232,234,235,236,237,238,239,240,241,242,243,244,245,247,249,250,251,253,255,258,259,262,264,266,267,269,270,272,273,274,276,278,279,280]
[1,1,1,2,1,2,2,1,1,1,1,5,1,2,2,2,2,1,1,2,1,1,1,2,1,3,1,1,1,1,2,1,1,4,1,1,1,1,1,1,3,1,1,1,1,2,1,1,1,3,2,1,1,2,2,1,2,3,2,2,2,3,2,1,1,1,1,3,1,1,1,1,1,1,1,1,2,2,1,1,2,2,1,1,2,2,1,1,1,1,1,1,1,2,2,1,1,1,3,2,1,2,2,3,1,1,4,2,1,1,2,1,3,2,3,3,3,2,1,1,1,2,2,3,1,1,1,1]
